InboundTrucks  = 20;
OutboundTrucks = 20;
InboundDoors   = 15;
OutboundDoors  = 15;
ReleaseTime    = [1,2,2,11,41,114,105,59,52,97,47,97,24,94,107,40,75,101,70,112];
UnloadTime     = [13,14,11,8,14,14,18,25,14,30,28,29,12,32,23,26,11,17,17,35];
LoadTime       = [5,11,5,14,14,15,19,24,18,12,24,19,12,13,23,12,12,22,20,14];
TransferTime   = [| 0,0,0,1,0,0,0,0,0,0,0,0,0,0,0,0,0,0,0,0 | 4,4,0,2,0,0,0,0,0,0,0,0,0,0,0,0,0,0,0,0 | 0,3,0,0,0,0,0,0,0,0,0,0,0,0,0,0,0,0,0,0 | 2,3,1,2,0,0,0,0,0,0,0,0,5,0,0,0,0,0,0,0 | 4,8,0,0,3,0,0,0,0,8,0,0,3,0,0,0,4,5,0,0 | 0,3,3,6,7,0,3,6,0,0,0,4,8,3,0,0,0,3,0,0 | 6,0,0,0,8,0,3,6,0,0,3,7,0,7,4,0,0,6,8,0 | 0,6,3,0,0,0,0,6,0,0,5,0,6,3,0,0,7,3,0,0 | 0,0,7,0,0,0,0,0,0,0,0,0,0,0,7,0,0,0,0,0 | 0,0,0,0,0,0,0,0,0,5,0,0,0,0,3,0,0,0,0,0 | 3,6,0,0,0,0,0,0,0,0,0,0,0,0,0,6,0,0,0,4 | 0,0,0,0,0,0,7,0,0,0,0,0,4,0,0,0,0,4,4,0 | 0,7,7,0,0,0,0,0,0,8,0,0,0,0,3,0,0,5,7,0 | 4,4,0,0,0,0,0,5,0,7,6,8,8,4,6,0,0,0,0,0 | 0,5,0,0,0,0,0,0,7,5,0,0,0,0,4,5,6,4,5,0 | 8,6,0,7,0,6,5,0,0,8,0,0,0,5,0,0,7,7,6,0 | 0,0,0,3,4,0,5,0,0,0,0,0,6,0,0,0,0,0,0,0 | 0,0,0,7,0,0,6,5,5,0,8,0,0,0,0,0,7,0,8,0 | 0,4,0,7,0,4,0,0,4,0,5,8,0,0,0,0,8,0,0,0 | 0,0,0,0,4,0,0,0,0,5,0,0,4,0,0,0,5,0,6,0 |];
